row=10;
column=10;
Board=[|1,0,0,0,1,1,0,0,1,0|0,0,0,0,0,0,1,0,0,0|0,0,0,1,0,0,0,0,0,1|0,1,0,0,0,0,0,0,0,0|0,0,0,0,0,0,1,0,0,0|1,0,1,0,1,0,0,0,0,0|0,0,0,0,0,0,0,0,0,0|0,1,0,0,0,0,1,0,1,0|0,0,0,0,1,0,0,0,0,0|0,0,0,0,0,0,0,0,0,0|];
right = [2,2,1,2,1,1,3,0,3,1];
bottom = [2,2,1,1,3,0,4,0,1,2];
